NAME: tsp15_14
COMMENT: 15-tsp problem (Padberg/Rinaldi)
TYPE: TSP
DIMENSION: 15
EDGE_WEIGHT_TYPE : EUC_2D
NODE_COORD_SECTION
1.00 5.26 32.51
2.00 32.13 8.07
3.00 33.65 5.38
4.00 7.52 10.05
5.00 32.21 16.91
6.00 19.85 36.18
7.00 31.59 9.50
8.00 25.30 4.62
9.00 15.27 18.02
10.00 6.01 35.02
11.00 9.58 33.80
12.00 39.66 22.51
13.00 38.79 27.07
14.00 0.36 33.98
15.00 22.31 5.51
